SDVRP instances/custom_instances/p04_15_splitx10_0.vrp
NAME:p04_15_splitx10_
BEST_KNOWN: 0
COMMENT: 0
DIMENSION: 708
CAPACITY: 2000
EDGE_WEIGHT_FORMAT: FUNCTION
EDGE_WEIGHT_TYPE: EXACT_2D
NODE_COORD_SECTION
1 0.00000 0.00000
2 4 49
3 4 49
4 4 49
5 4 49
6 -32 -48
7 -32 -48
8 -32 -48
9 -32 -48
10 -32 -48
11 -1 17
12 -1 17
13 -5 -30
14 -5 -30
15 -5 -30
16 -5 -30
17 -5 -30
18 -5 -30
19 -5 -30
20 43 36
21 43 36
22 43 36
23 43 36
24 43 36
25 12 -48
26 12 -48
27 12 -48
28 12 -48
29 46 -31
30 46 -31
31 -39 45
32 -39 45
33 -39 45
34 -39 45
35 -39 45
36 26 34
37 26 34
38 26 34
39 26 34
40 38 -40
41 38 -40
42 38 -40
43 38 -40
44 38 -40
45 38 -40
46 11 11
47 11 11
48 11 11
49 11 11
50 11 11
51 19 44
52 19 44
53 11 19
54 11 19
55 11 19
56 11 19
57 11 19
58 11 19
59 -27 -45
60 -27 -45
61 -27 -45
62 -27 -45
63 -2 28
64 -2 28
65 -2 28
66 -24 -36
67 -24 -36
68 -24 -36
69 -24 -36
70 29 -9
71 29 -9
72 29 -9
73 29 -9
74 50 31
75 50 31
76 50 31
77 50 31
78 50 31
79 50 31
80 -44 38
81 -44 38
82 -44 38
83 -44 38
84 -44 38
85 -44 38
86 -27 -31
87 -27 -31
88 -27 -31
89 -27 -31
90 -27 -31
91 6 45
92 6 45
93 6 45
94 6 45
95 6 45
96 6 45
97 15 -30
98 15 -30
99 26 45
100 26 45
101 26 45
102 26 45
103 26 45
104 26 45
105 26 45
106 26 45
107 34 50
108 34 50
109 34 50
110 34 50
111 -22 1
112 -22 1
113 -22 1
114 -22 1
115 29 -42
116 29 -42
117 29 -42
118 29 -42
119 29 -42
120 29 -42
121 8 0
122 8 0
123 8 0
124 8 0
125 8 0
126 8 0
127 8 0
128 -17 46
129 -17 46
130 -17 46
131 -17 46
132 -27 50
133 -27 50
134 -27 50
135 -27 50
136 -27 50
137 -27 50
138 23 13
139 23 13
140 23 13
141 25 49
142 25 49
143 25 49
144 25 49
145 4 9
146 4 9
147 4 9
148 4 9
149 4 9
150 -50 -30
151 -50 -30
152 -1 -1
153 -1 -1
154 -1 -1
155 -7 12
156 -7 12
157 -7 12
158 -7 12
159 -7 12
160 -7 12
161 -7 12
162 -28 10
163 -28 10
164 -28 10
165 45 43
166 45 43
167 45 43
168 45 43
169 45 43
170 45 43
171 45 43
172 45 43
173 24 10
174 24 10
175 24 10
176 24 10
177 24 10
178 37 -28
179 37 -28
180 37 -28
181 37 -28
182 37 -28
183 37 -28
184 37 -28
185 6 -7
186 6 -7
187 6 -7
188 6 -7
189 -7 32
190 -7 32
191 -7 32
192 3 -28
193 3 -28
194 3 -28
195 3 -28
196 3 -28
197 -28 14
198 -28 14
199 -28 14
200 16 11
201 16 11
202 16 11
203 -2 16
204 -2 16
205 -2 16
206 -2 16
207 -2 16
208 -2 16
209 8 4
210 8 4
211 8 4
212 8 4
213 24 27
214 24 27
215 24 27
216 24 27
217 24 27
218 24 27
219 48 40
220 48 40
221 48 40
222 48 40
223 48 40
224 48 40
225 -33 -25
226 -33 -25
227 -33 -25
228 -33 -25
229 -33 -25
230 -33 -25
231 -33 -25
232 -16 -31
233 -14 43
234 -14 43
235 -14 43
236 -14 43
237 -14 43
238 -14 43
239 -14 43
240 -22 32
241 -22 32
242 -22 32
243 -22 32
244 -22 32
245 -23 23
246 -23 23
247 -23 23
248 -23 23
249 -23 23
250 -23 23
251 -11 -45
252 -11 -45
253 -11 -45
254 -11 -45
255 -40 30
256 -40 30
257 -40 30
258 -40 30
259 -40 30
260 -40 30
261 9 40
262 9 40
263 9 40
264 9 40
265 9 40
266 37 20
267 37 20
268 37 20
269 37 20
270 37 20
271 37 20
272 26 37
273 26 37
274 26 37
275 26 37
276 26 37
277 -32 -50
278 -32 -50
279 -32 -50
280 34 13
281 34 13
282 34 13
283 34 13
284 -50 -26
285 -50 -26
286 -50 -26
287 -50 -26
288 -50 -26
289 -50 -26
290 46 26
291 46 26
292 46 26
293 46 26
294 46 26
295 46 26
296 -17 -33
297 -17 -33
298 -17 -33
299 -17 -33
300 35 -2
301 35 -2
302 35 -2
303 35 -2
304 35 -2
305 35 -2
306 35 -2
307 -37 -29
308 -37 -29
309 -37 -29
310 -40 26
311 -40 26
312 -40 26
313 -40 26
314 -14 -18
315 -14 -18
316 -14 -18
317 -14 -18
318 -14 -18
319 -14 -18
320 -38 -26
321 -38 -26
322 -38 -26
323 -38 -26
324 -38 -26
325 -38 -26
326 -38 -26
327 9 6
328 9 6
329 44 18
330 44 18
331 44 18
332 44 -29
333 44 -29
334 44 -29
335 44 -29
336 42 -19
337 42 -19
338 42 -19
339 42 -19
340 42 -19
341 42 -19
342 42 -19
343 42 -19
344 -24 24
345 -24 24
346 -24 24
347 -24 24
348 -24 24
349 -24 24
350 -24 24
351 38 0
352 38 0
353 38 0
354 38 0
355 -24 -49
356 -24 -49
357 -24 -49
358 -24 -49
359 -24 -49
360 25 -50
361 25 -50
362 25 -50
363 25 -50
364 25 -50
365 25 -50
366 -1 41
367 -1 41
368 -1 41
369 -1 41
370 -34 -39
371 -34 -39
372 -34 -39
373 -34 -39
374 -34 -39
375 -34 -39
376 -25 -21
377 -25 -21
378 -25 -21
379 -25 -21
380 -25 -21
381 15 11
382 15 11
383 15 11
384 15 11
385 15 11
386 15 11
387 20 -22
388 20 -22
389 20 -22
390 40 24
391 40 24
392 40 24
393 40 24
394 40 24
395 40 24
396 26 -28
397 26 -28
398 26 -28
399 26 -28
400 26 -28
401 26 -28
402 11 7
403 11 7
404 11 7
405 11 7
406 11 7
407 11 7
408 46 -46
409 46 -46
410 46 -46
411 46 -46
412 46 -46
413 46 -46
414 30 -11
415 30 -11
416 30 -11
417 30 -11
418 30 -11
419 30 -11
420 29 49
421 29 49
422 29 49
423 29 49
424 29 49
425 44 13
426 44 13
427 44 13
428 44 13
429 44 13
430 44 13
431 44 13
432 44 13
433 -18 28
434 -18 28
435 3 -48
436 3 -48
437 3 -48
438 3 -48
439 3 -48
440 3 -48
441 -39 -3
442 -39 -3
443 -39 -3
444 -38 -24
445 -38 -24
446 -38 -24
447 -38 -24
448 -38 -24
449 -38 -24
450 -38 -24
451 -27 -14
452 -27 -14
453 -27 -14
454 -27 -14
455 -27 -14
456 -27 -14
457 -2 -37
458 -2 -37
459 -2 -37
460 -28 -46
461 -28 -46
462 -28 -46
463 -28 -46
464 -28 -46
465 5 -8
466 5 -8
467 5 -8
468 5 -8
469 1 37
470 1 37
471 1 37
472 1 37
473 1 37
474 1 37
475 48 29
476 48 29
477 48 29
478 48 29
479 48 29
480 48 29
481 48 29
482 -46 -39
483 -46 -39
484 -46 -39
485 -46 -39
486 45 -35
487 45 -35
488 45 -35
489 45 -35
490 45 -35
491 45 -35
492 45 -35
493 -45 45
494 -45 45
495 -45 45
496 -45 45
497 -45 45
498 -19 30
499 -19 30
500 -19 30
501 -19 30
502 -36 5
503 -36 5
504 -39 -5
505 -39 -5
506 -39 -5
507 -39 -5
508 -39 -5
509 -39 -5
510 -10 6
511 -10 6
512 -6 -20
513 -32 -6
514 -32 -6
515 -32 -6
516 -32 -6
517 -32 -6
518 -4 -44
519 -4 -44
520 -4 -44
521 40 33
522 40 33
523 40 33
524 40 33
525 40 33
526 40 33
527 -2 -24
528 -2 -24
529 -2 -24
530 -2 -24
531 -2 -24
532 -2 -24
533 -18 37
534 -18 37
535 -18 37
536 -18 37
537 -18 37
538 -18 37
539 -18 37
540 43 11
541 43 11
542 -9 -31
543 -9 -31
544 -9 -31
545 -9 -31
546 -9 -31
547 23 -6
548 23 -6
549 23 -6
550 -27 43
551 -27 43
552 -27 43
553 -18 -29
554 -18 -29
555 -18 -29
556 -18 -29
557 -18 -29
558 -18 -29
559 48 45
560 48 45
561 48 45
562 48 45
563 -50 -30
564 -50 -30
565 -50 -30
566 -50 -30
567 -50 -30
568 -50 -30
569 -16 -18
570 -16 -18
571 -16 -18
572 -16 -18
573 -16 -18
574 -16 -18
575 -43 40
576 -43 40
577 -43 40
578 -43 40
579 -43 40
580 -43 40
581 29 -32
582 29 -32
583 29 -32
584 29 -32
585 1 25
586 1 25
587 1 25
588 -19 35
589 -19 35
590 -19 35
591 -19 35
592 -19 35
593 -19 35
594 40 5
595 40 5
596 40 5
597 40 5
598 1 -10
599 1 -10
600 1 -10
601 16 -25
602 16 -25
603 16 -25
604 16 -25
605 29 19
606 29 19
607 29 19
608 29 19
609 -5 -6
610 -5 -6
611 -5 -6
612 -5 -6
613 20 5
614 20 5
615 20 5
616 30 15
617 30 15
618 30 15
619 30 15
620 31 -7
621 31 -7
622 31 -7
623 31 -7
624 -23 -31
625 -23 -31
626 -23 -31
627 -23 -31
628 -20 30
629 -20 30
630 -20 30
631 13 -50
632 13 -50
633 13 -50
634 13 -50
635 13 -50
636 13 -50
637 -46 24
638 -46 24
639 -46 24
640 -46 24
641 12 18
642 12 18
643 12 18
644 12 18
645 12 18
646 47 -40
647 5 -13
648 5 -13
649 5 -13
650 5 -13
651 5 -13
652 -42 34
653 -42 34
654 -42 34
655 -42 34
656 -42 34
657 -42 34
658 -19 -6
659 -19 -6
660 -19 -6
661 -19 -6
662 -19 -6
663 -19 -6
664 16 -15
665 16 -15
666 16 -15
667 16 -15
668 15 13
669 15 13
670 -34 -49
671 -34 -49
672 -34 -49
673 -34 -49
674 -34 -49
675 -34 -49
676 -34 -49
677 -15 5
678 -15 5
679 -15 5
680 5 -18
681 5 -18
682 38 7
683 38 7
684 38 7
685 13 -16
686 13 -16
687 13 -16
688 13 -16
689 13 -16
690 13 -16
691 13 -16
692 13 -16
693 40 -20
694 40 -20
695 40 -20
696 40 -20
697 40 -20
698 40 -20
699 40 -20
700 -32 20
701 -32 20
702 -32 20
703 -32 20
704 -20 40
705 -20 40
706 -20 40
707 -20 40
708 -20 40
DEMAND_SECTION
1 0
2 400
3 400
4 100
5 20
6 400
7 200
8 100
9 20
10 10
11 400
12 100
13 400
14 100
15 20
16 20
17 20
18 20
19 10
20 400
21 200
22 20
23 20
24 20
25 200
26 100
27 20
28 10
29 400
30 10
31 400
32 200
33 100
34 20
35 10
36 400
37 200
38 20
39 10
40 400
41 100
42 20
43 20
44 20
45 10
46 200
47 20
48 20
49 20
50 20
51 400
52 400
53 400
54 400
55 20
56 20
57 20
58 10
59 200
60 20
61 20
62 10
63 400
64 200
65 20
66 400
67 400
68 100
69 20
70 400
71 200
72 100
73 10
74 400
75 400
76 100
77 20
78 20
79 20
80 200
81 100
82 20
83 20
84 20
85 20
86 400
87 400
88 20
89 20
90 10
91 400
92 200
93 100
94 20
95 20
96 10
97 400
98 20
99 400
100 400
101 100
102 20
103 20
104 20
105 20
106 10
107 200
108 20
109 20
110 10
111 400
112 400
113 100
114 10
115 200
116 100
117 20
118 20
119 20
120 10
121 400
122 200
123 100
124 20
125 20
126 20
127 20
128 200
129 100
130 20
131 20
132 200
133 20
134 20
135 20
136 20
137 10
138 400
139 400
140 100
141 400
142 20
143 20
144 10
145 400
146 200
147 20
148 20
149 20
150 400
151 20
152 400
153 400
154 20
155 400
156 400
157 100
158 20
159 20
160 20
161 20
162 400
163 100
164 10
165 400
166 400
167 100
168 20
169 20
170 20
171 20
172 10
173 400
174 400
175 100
176 20
177 10
178 400
179 200
180 100
181 20
182 20
183 20
184 10
185 200
186 100
187 20
188 20
189 400
190 400
191 200
192 400
193 20
194 20
195 20
196 10
197 400
198 100
199 10
200 400
201 400
202 10
203 400
204 200
205 100
206 20
207 20
208 10
209 400
210 200
211 100
212 10
213 400
214 400
215 20
216 20
217 20
218 10
219 200
220 100
221 20
222 20
223 20
224 10
225 400
226 400
227 20
228 20
229 20
230 20
231 10
232 400
233 400
234 200
235 20
236 20
237 20
238 20
239 10
240 200
241 100
242 20
243 20
244 20
245 400
246 200
247 100
248 20
249 20
250 20
251 400
252 200
253 100
254 20
255 400
256 100
257 20
258 20
259 20
260 20
261 400
262 200
263 20
264 20
265 20
266 400
267 400
268 100
269 20
270 20
271 10
272 200
273 100
274 20
275 20
276 10
277 400
278 400
279 100
280 200
281 20
282 20
283 20
284 400
285 400
286 20
287 20
288 20
289 10
290 400
291 200
292 20
293 20
294 20
295 20
296 400
297 100
298 20
299 10
300 400
301 100
302 20
303 20
304 20
305 20
306 10
307 400
308 200
309 100
310 400
311 200
312 100
313 10
314 400
315 200
316 20
317 20
318 20
319 20
320 400
321 400
322 20
323 20
324 20
325 20
326 10
327 400
328 400
329 400
330 200
331 10
332 400
333 20
334 20
335 20
336 400
337 400
338 100
339 20
340 20
341 20
342 20
343 10
344 400
345 100
346 20
347 20
348 20
349 20
350 10
351 400
352 200
353 100
354 20
355 400
356 400
357 20
358 20
359 10
360 200
361 100
362 20
363 20
364 20
365 20
366 400
367 200
368 20
369 10
370 200
371 20
372 20
373 20
374 20
375 10
376 400
377 200
378 100
379 20
380 20
381 400
382 200
383 100
384 20
385 20
386 10
387 200
388 100
389 10
390 400
391 200
392 20
393 20
394 20
395 20
396 400
397 200
398 20
399 20
400 20
401 20
402 400
403 100
404 20
405 20
406 20
407 10
408 400
409 200
410 100
411 20
412 20
413 10
414 400
415 100
416 20
417 20
418 20
419 20
420 400
421 200
422 20
423 20
424 10
425 400
426 400
427 100
428 20
429 20
430 20
431 20
432 10
433 400
434 20
435 400
436 400
437 20
438 20
439 20
440 20
441 400
442 400
443 100
444 400
445 100
446 20
447 20
448 20
449 20
450 10
451 400
452 200
453 20
454 20
455 20
456 10
457 200
458 100
459 10
460 400
461 200
462 20
463 20
464 10
465 400
466 200
467 100
468 10
469 400
470 400
471 20
472 20
473 20
474 20
475 400
476 200
477 100
478 20
479 20
480 20
481 20
482 400
483 200
484 100
485 10
486 400
487 200
488 100
489 20
490 20
491 20
492 10
493 400
494 400
495 100
496 20
497 20
498 400
499 400
500 20
501 10
502 200
503 100
504 400
505 400
506 20
507 20
508 20
509 10
510 400
511 400
512 400
513 400
514 100
515 20
516 20
517 20
518 400
519 200
520 100
521 400
522 100
523 20
524 20
525 20
526 10
527 400
528 400
529 100
530 20
531 20
532 20
533 400
534 400
535 20
536 20
537 20
538 20
539 10
540 400
541 10
542 200
543 100
544 20
545 20
546 10
547 400
548 400
549 200
550 200
551 100
552 20
553 400
554 400
555 20
556 20
557 20
558 20
559 400
560 200
561 20
562 20
563 400
564 100
565 20
566 20
567 20
568 10
569 200
570 100
571 20
572 20
573 20
574 10
575 400
576 200
577 20
578 20
579 20
580 10
581 400
582 400
583 20
584 20
585 400
586 100
587 20
588 200
589 20
590 20
591 20
592 20
593 10
594 400
595 400
596 20
597 20
598 200
599 100
600 20
601 400
602 200
603 20
604 10
605 400
606 200
607 100
608 20
609 400
610 200
611 100
612 10
613 400
614 200
615 20
616 400
617 400
618 100
619 10
620 400
621 200
622 100
623 10
624 400
625 200
626 100
627 20
628 400
629 400
630 200
631 400
632 200
633 100
634 20
635 20
636 20
637 400
638 400
639 100
640 10
641 400
642 20
643 20
644 20
645 10
646 400
647 400
648 200
649 20
650 20
651 10
652 200
653 20
654 20
655 20
656 20
657 10
658 400
659 400
660 100
661 20
662 20
663 10
664 400
665 200
666 100
667 10
668 400
669 200
670 400
671 400
672 100
673 20
674 20
675 20
676 20
677 400
678 20
679 20
680 400
681 100
682 400
683 200
684 10
685 400
686 200
687 100
688 20
689 20
690 20
691 20
692 10
693 400
694 200
695 20
696 20
697 20
698 20
699 10
700 400
701 400
702 20
703 20
704 400
705 20
706 20
707 20
708 10
DEPOT_SECTION
1
-1
EOF