SDVRP instances/custom_instances/p04_15_splitx10_0.sol
707 -10 203 202 206 204 207 205 155 154 -11 63 64 62 190 189 188 -15 17 16 12 13 14 18 541 542 545 544 543 519 518 517 458 456 457 531 530 -27 26 25 24 632 635 630 631 634 633 436 438 434 437 439 435 195 194 -38 36 37 35 213 212 216 215 214 217 402 401 -46 48 49 45 47 668 667 200 380 385 381 406 210 -66 357 358 355 356 354 253 252 250 251 -72 70 71 337 335 336 341 338 342 339 340 693 694 698 696 695 697 692 -73 75 74 78 76 77 480 478 475 476 477 479 474 394 393 392 390 -87 85 86 89 88 65 68 625 624 623 626 -108 109 107 106 421 422 419 420 423 100 103 99 104 105 102 101 98 146 147 -112 113 111 110 659 660 658 657 661 662 -120 121 209 208 327 326 -122 351 350 305 302 301 303 304 299 300 621 619 622 620 -123 125 353 352 596 595 594 540 539 428 429 427 426 430 425 431 424 -124 126 294 293 291 292 289 290 21 23 20 19 22 524 525 523 520 521 522 -133 131 136 135 134 132 33 32 31 34 30 495 496 494 493 492 -144 148 145 52 54 56 55 57 53 642 644 640 641 643 -151 152 153 -156 159 157 160 158 706 704 703 705 707 549 551 550 129 127 130 128 238 234 235 237 232 236 233 -165 167 166 170 171 164 169 168 559 558 560 561 223 218 220 221 219 222 -174 616 615 617 137 138 139 383 384 403 404 405 -177 581 580 115 114 117 118 116 119 364 361 362 360 359 363 -187 186 185 184 464 466 465 467 647 649 646 650 648 597 599 -198 197 196 161 162 163 502 501 512 516 515 513 514 -211 618 268 266 269 270 265 267 391 389 328 330 329 -227 225 226 230 322 319 320 323 321 324 325 445 443 446 444 447 448 449 -231 297 298 295 296 553 552 557 556 555 314 -245 249 248 246 312 310 309 311 636 639 637 638 -247 244 343 348 345 346 349 347 344 700 699 702 701 -258 259 256 254 255 257 656 654 652 651 653 655 80 81 84 82 79 83 577 579 576 575 574 578 -260 51 50 142 140 143 141 271 274 272 275 273 -263 262 264 261 91 90 95 94 93 92 3 1 2 4 470 471 473 -315 317 67 7 6 278 277 276 460 462 461 459 463 -318 313 316 571 572 569 568 375 376 451 450 452 -333 334 332 331 29 28 490 486 491 485 178 182 183 181 179 180 691 686 -365 368 367 366 469 472 468 585 584 586 -378 377 379 224 229 228 307 306 308 482 484 483 481 -382 201 199 175 172 176 173 613 612 614 -387 388 386 395 396 397 97 96 602 600 603 601 -399 398 400 582 583 39 40 43 42 44 41 408 409 411 407 410 412 645 487 489 488 -413 417 416 414 415 418 69 547 546 548 -433 432 500 498 499 497 629 628 -441 440 442 503 506 507 505 504 508 -454 453 455 288 287 286 284 283 285 562 563 567 566 150 564 149 565 -509 510 678 677 676 608 611 610 609 -511 526 527 529 528 192 193 191 598 -534 532 533 538 536 537 535 591 589 590 592 588 587 242 241 239 243 240 627 -554 60 59 61 58 5 8 9 669 671 670 674 673 675 672 373 369 372 370 371 374 573 570 -593 683 682 681 280 281 282 279 607 604 606 605 -664 665 663 666 684 688 687 690 685 689 679 680 0 





OBJ=
4475.802
BEST_KNOWN=
0.000